6,3	0,0	20,0	15,6	0,0	0,0	0,0	0,0	0,0	8,7
9,6	11,4	0,0	14,6	15,0	0,0	0,0	5,6	0,0	0,0
0,0	0,0	12,6	0,0	6,3	18,3	0,0	0,0	17,7	0,0
6,5	0,0	19,7	0,0	0,0	0,0	12,1	0,0	0,0	0,0
0,0	7,0	0,0	16,8	17,5	0,0	0,0	15,0	0,0	0,0
0,0	11,1	5,7	0,0	17,1	8,8	0,0	0,0	15,6	0,0
0,0	18,4	0,0	5,5	0,0	0,0	16,4	0,0	0,0	17,9
16,6	0,0	20,0	0,0	0,0	0,0	0,0	0,0	0,0	13,2
0,0	17,1	0,0	16,8	16,6	0,0	0,0	19,5	0,0	0,0
0,0	0,0	10,8	0,0	0,0	14,4	11,0	0,0	0,0	7,4
0,0	15,8	0,0	0,0	7,4	0,0	10,8	0,0	6,3	13,0
11,0	0,0	8,6	0,0	7,9	0,0	15,8	19,6	6,9	0,0
0,0	13,2	0,0	0,0	0,0	16,1	0,0	11,5	14,5	12,1
13,5	7,5	13,2	0,0	0,0	5,7	0,0	5,7	8,4	0,0
10,9	0,0	17,9	0,0	6,2	9,8	7,6	15,8	0,0	0,0
0,0	8,1	0,0	13,8	0,0	12,3	0,0	17,3	0,0	0,0
10,7	0,0	14,9	17,4	6,5	0,0	0,0	19,3	0,0	0,0
0,0	0,0	14,3	0,0	0,0	16,3	16,7	0,0	14,5	18,6
18,6	0,0	0,0	15,3	13,4	18,0	7,3	11,5	0,0	15,4
0,0	11,6	0,0	14,5	0,0	0,0	10,3	0,0	6,4	15,0
									
4,2	3,0	2,7	5,0	3,0	3,2	3,0	4,5	4,7	4,4
